n_jobs = 20;
n_machines = 5;

job_task_duration = array2d(jobs, tasks, [
	53, 93, 90, 65, 64,
	19, 79, 92, 97, 38,
	99, 88, 35, 27, 44,
	62, 77, 13, 25, 46,
	88, 94, 75, 61, 66,
	93, 39, 55, 24, 31,
	34, 74, 80, 97, 48,
	72, 46, 67, 61, 27,
	42, 17, 3, 75, 82,
	65, 30, 93, 92, 51,
	39, 62, 54, 73, 90,
	79, 77, 67, 21, 63,
	9, 43, 25, 29, 85,
	26, 98, 77, 3, 36,
	72, 48, 38, 96, 69,
	29, 14, 98, 51, 67,
	36, 45, 96, 26, 81,
	48, 25, 20, 44, 18,
	57, 98, 15, 56, 81,
	95, 30, 36, 31, 72
]);

due_date_jobs = [432, 1236, 1158, 398, 915, 419, 1009, 297, 817, 1117, 584, 491, 585, 318, 1088, 543, 1129, 576, 1060, 712];